c strEdges: 125  randomEdges: 504 
c degrees:  1  2 
c girth: Inf max: -43.604516  
c Hgirth mixed MAXCUT instance
c generated from an undirected graph
c to solve unweighted MaxCut
p cnf 140 1258
20 98 0
-20 -98 0
101 76 0
-101 -76 0
101 72 0
-101 -72 0
127 67 0
-127 -67 0
127 103 0
-127 -103 0
22 87 0
-22 -87 0
56 29 0
-56 -29 0
56 67 0
-56 -67 0
133 48 0
-133 -48 0
59 34 0
-59 -34 0
59 94 0
-59 -94 0
64 104 0
-64 -104 0
64 61 0
-64 -61 0
37 57 0
-37 -57 0
37 3 0
-37 -3 0
80 121 0
-80 -121 0
80 51 0
-80 -51 0
119 74 0
-119 -74 0
26 123 0
-26 -123 0
26 95 0
-26 -95 0
117 73 0
-117 -73 0
117 96 0
-117 -96 0
52 115 0
-52 -115 0
52 44 0
-52 -44 0
9 140 0
-9 -140 0
30 114 0
-30 -114 0
30 88 0
-30 -88 0
70 100 0
-70 -100 0
70 123 0
-70 -123 0
118 72 0
-118 -72 0
118 89 0
-118 -89 0
18 108 0
-18 -108 0
79 139 0
-79 -139 0
79 77 0
-79 -77 0
78 43 0
-78 -43 0
78 48 0
-78 -48 0
134 51 0
-134 -51 0
134 114 0
-134 -114 0
8 23 0
-8 -23 0
8 108 0
-8 -108 0
38 113 0
-38 -113 0
38 136 0
-38 -136 0
137 75 0
-137 -75 0
137 139 0
-137 -139 0
130 44 0
-130 -44 0
130 2 0
-130 -2 0
25 77 0
-25 -77 0
25 57 0
-25 -57 0
122 42 0
-122 -42 0
122 73 0
-122 -73 0
124 17 0
-124 -17 0
124 115 0
-124 -115 0
90 40 0
-90 -40 0
90 111 0
-90 -111 0
97 47 0
-97 -47 0
97 29 0
-97 -29 0
45 41 0
-45 -41 0
45 54 0
-45 -54 0
138 84 0
-138 -84 0
138 75 0
-138 -75 0
128 94 0
-128 -94 0
128 7 0
-128 -7 0
63 32 0
-63 -32 0
63 140 0
-63 -140 0
107 91 0
-107 -91 0
83 86 0
-83 -86 0
13 135 0
-13 -135 0
126 102 0
-126 -102 0
126 21 0
-126 -21 0
33 132 0
-33 -132 0
33 104 0
-33 -104 0
27 21 0
-27 -21 0
27 17 0
-27 -17 0
11 12 0
-11 -12 0
39 55 0
-39 -55 0
39 60 0
-39 -60 0
99 62 0
-99 -62 0
36 103 0
-36 -103 0
36 34 0
-36 -34 0
6 1 0
-6 -1 0
6 65 0
-6 -65 0
31 46 0
-31 -46 0
31 92 0
-31 -92 0
71 7 0
-71 -7 0
105 66 0
-105 -66 0
105 82 0
-105 -82 0
10 96 0
-10 -96 0
10 62 0
-10 -62 0
120 60 0
-120 -60 0
120 43 0
-120 -43 0
16 58 0
-16 -58 0
16 135 0
-16 -135 0
81 82 0
-81 -82 0
81 12 0
-81 -12 0
4 61 0
-4 -61 0
69 15 0
-69 -15 0
69 91 0
-69 -91 0
131 54 0
-131 -54 0
131 86 0
-131 -86 0
125 65 0
-125 -65 0
125 40 0
-125 -40 0
109 136 0
-109 -136 0
109 55 0
-109 -55 0
24 14 0
-24 -14 0
24 129 0
-24 -129 0
19 85 0
-19 -85 0
19 42 0
-19 -42 0
28 116 0
-28 -116 0
110 89 0
-110 -89 0
110 116 0
-110 -116 0
106 68 0
-106 -68 0
112 88 0
-112 -88 0
112 1 0
-112 -1 0
5 2 0
-5 -2 0
5 41 0
-5 -41 0
50 3 0
-50 -3 0
50 76 0
-50 -76 0
53 129 0
-53 -129 0
53 100 0
-53 -100 0
49 111 0
-49 -111 0
49 68 0
-49 -68 0
93 95 0
-93 -95 0
93 132 0
-93 -132 0
35 92 0
-35 -92 0
35 14 0
-35 -14 0
79 51 0
-79 -51 0
30 38 0
-30 -38 0
24 68 0
-24 -68 0
67 121 0
-67 -121 0
123 73 0
-123 -73 0
130 35 0
-130 -35 0
67 108 0
-67 -108 0
115 15 0
-115 -15 0
65 95 0
-65 -95 0
64 120 0
-64 -120 0
131 123 0
-131 -123 0
117 28 0
-117 -28 0
8 38 0
-8 -38 0
28 66 0
-28 -66 0
26 34 0
-26 -34 0
128 89 0
-128 -89 0
13 32 0
-13 -32 0
91 58 0
-91 -58 0
71 86 0
-71 -86 0
127 132 0
-127 -132 0
78 47 0
-78 -47 0
106 21 0
-106 -21 0
26 73 0
-26 -73 0
104 100 0
-104 -100 0
64 30 0
-64 -30 0
53 123 0
-53 -123 0
11 108 0
-11 -108 0
59 91 0
-59 -91 0
22 139 0
-22 -139 0
16 136 0
-16 -136 0
24 85 0
-24 -85 0
127 116 0
-127 -116 0
126 10 0
-126 -10 0
20 79 0
-20 -79 0
39 24 0
-39 -24 0
135 3 0
-135 -3 0
64 94 0
-64 -94 0
35 75 0
-35 -75 0
127 14 0
-127 -14 0
57 114 0
-57 -114 0
112 77 0
-112 -77 0
128 125 0
-128 -125 0
37 26 0
-37 -26 0
90 102 0
-90 -102 0
30 43 0
-30 -43 0
128 54 0
-128 -54 0
83 65 0
-83 -65 0
97 76 0
-97 -76 0
44 77 0
-44 -77 0
76 17 0
-76 -17 0
83 58 0
-83 -58 0
6 92 0
-6 -92 0
79 125 0
-79 -125 0
9 103 0
-9 -103 0
13 116 0
-13 -116 0
27 39 0
-27 -39 0
79 138 0
-79 -138 0
19 102 0
-19 -102 0
123 92 0
-123 -92 0
104 44 0
-104 -44 0
33 100 0
-33 -100 0
76 67 0
-76 -67 0
4 116 0
-4 -116 0
127 30 0
-127 -30 0
101 60 0
-101 -60 0
59 125 0
-59 -125 0
26 132 0
-26 -132 0
76 7 0
-76 -7 0
38 129 0
-38 -129 0
117 110 0
-117 -110 0
100 139 0
-100 -139 0
78 3 0
-78 -3 0
6 54 0
-6 -54 0
81 34 0
-81 -34 0
111 92 0
-111 -92 0
83 126 0
-83 -126 0
47 21 0
-47 -21 0
43 77 0
-43 -77 0
78 91 0
-78 -91 0
120 85 0
-120 -85 0
131 60 0
-131 -60 0
101 47 0
-101 -47 0
26 114 0
-26 -114 0
131 114 0
-131 -114 0
130 61 0
-130 -61 0
50 46 0
-50 -46 0
25 112 0
-25 -112 0
6 34 0
-6 -34 0
36 54 0
-36 -54 0
33 12 0
-33 -12 0
6 35 0
-6 -35 0
90 98 0
-90 -98 0
105 69 0
-105 -69 0
125 15 0
-125 -15 0
100 15 0
-100 -15 0
100 14 0
-100 -14 0
77 1 0
-77 -1 0
8 15 0
-8 -15 0
138 112 0
-138 -112 0
77 14 0
-77 -14 0
90 82 0
-90 -82 0
75 54 0
-75 -54 0
49 132 0
-49 -132 0
110 139 0
-110 -139 0
9 73 0
-9 -73 0
69 32 0
-69 -32 0
79 12 0
-79 -12 0
108 58 0
-108 -58 0
52 74 0
-52 -74 0
5 103 0
-5 -103 0
64 111 0
-64 -111 0
52 68 0
-52 -68 0
79 33 0
-79 -33 0
33 46 0
-33 -46 0
55 15 0
-55 -15 0
133 136 0
-133 -136 0
60 89 0
-60 -89 0
71 24 0
-71 -24 0
81 123 0
-81 -123 0
33 84 0
-33 -84 0
86 21 0
-86 -21 0
29 3 0
-29 -3 0
55 58 0
-55 -58 0
97 61 0
-97 -61 0
22 128 0
-22 -128 0
45 123 0
-45 -123 0
133 82 0
-133 -82 0
105 54 0
-105 -54 0
6 7 0
-6 -7 0
138 12 0
-138 -12 0
134 40 0
-134 -40 0
27 68 0
-27 -68 0
55 65 0
-55 -65 0
99 104 0
-99 -104 0
22 52 0
-22 -52 0
27 115 0
-27 -115 0
85 3 0
-85 -3 0
45 102 0
-45 -102 0
109 84 0
-109 -84 0
37 130 0
-37 -130 0
44 54 0
-44 -54 0
107 89 0
-107 -89 0
87 1 0
-87 -1 0
123 61 0
-123 -61 0
97 98 0
-97 -98 0
19 51 0
-19 -51 0
30 116 0
-30 -116 0
88 92 0
-88 -92 0
53 12 0
-53 -12 0
57 123 0
-57 -123 0
69 98 0
-69 -98 0
20 56 0
-20 -56 0
86 60 0
-86 -60 0
67 77 0
-67 -77 0
4 48 0
-4 -48 0
49 44 0
-49 -44 0
61 3 0
-61 -3 0
117 115 0
-117 -115 0
8 39 0
-8 -39 0
56 135 0
-56 -135 0
126 96 0
-126 -96 0
79 29 0
-79 -29 0
63 125 0
-63 -125 0
59 63 0
-59 -63 0
101 106 0
-101 -106 0
63 77 0
-63 -77 0
79 1 0
-79 -1 0
134 4 0
-134 -4 0
27 113 0
-27 -113 0
128 39 0
-128 -39 0
4 139 0
-4 -139 0
5 46 0
-5 -46 0
123 15 0
-123 -15 0
122 105 0
-122 -105 0
9 102 0
-9 -102 0
17 21 0
-17 -21 0
117 55 0
-117 -55 0
84 116 0
-84 -116 0
126 88 0
-126 -88 0
131 15 0
-131 -15 0
30 100 0
-30 -100 0
3 129 0
-3 -129 0
76 86 0
-76 -86 0
25 129 0
-25 -129 0
120 40 0
-120 -40 0
57 95 0
-57 -95 0
69 100 0
-69 -100 0
23 82 0
-23 -82 0
53 94 0
-53 -94 0
56 130 0
-56 -130 0
114 58 0
-114 -58 0
130 94 0
-130 -94 0
38 81 0
-38 -81 0
11 60 0
-11 -60 0
121 132 0
-121 -132 0
18 23 0
-18 -23 0
18 116 0
-18 -116 0
118 96 0
-118 -96 0
9 89 0
-9 -89 0
79 46 0
-79 -46 0
79 24 0
-79 -24 0
80 76 0
-80 -76 0
20 40 0
-20 -40 0
108 1 0
-108 -1 0
25 34 0
-25 -34 0
19 3 0
-19 -3 0
40 91 0
-40 -91 0
97 95 0
-97 -95 0
50 41 0
-50 -41 0
134 100 0
-134 -100 0
123 62 0
-123 -62 0
112 86 0
-112 -86 0
137 35 0
-137 -35 0
126 7 0
-126 -7 0
69 94 0
-69 -94 0
11 32 0
-11 -32 0
16 104 0
-16 -104 0
31 12 0
-31 -12 0
120 123 0
-120 -123 0
124 3 0
-124 -3 0
102 65 0
-102 -65 0
101 94 0
-101 -94 0
26 13 0
-26 -13 0
81 40 0
-81 -40 0
106 54 0
-106 -54 0
99 100 0
-99 -100 0
5 3 0
-5 -3 0
121 14 0
-121 -14 0
32 136 0
-32 -136 0
33 108 0
-33 -108 0
24 104 0
-24 -104 0
27 125 0
-27 -125 0
71 100 0
-71 -100 0
118 2 0
-118 -2 0
140 60 0
-140 -60 0
69 72 0
-69 -72 0
93 29 0
-93 -29 0
74 135 0
-74 -135 0
115 129 0
-115 -129 0
17 32 0
-17 -32 0
110 132 0
-110 -132 0
107 69 0
-107 -69 0
107 4 0
-107 -4 0
113 62 0
-113 -62 0
74 111 0
-74 -111 0
50 108 0
-50 -108 0
27 88 0
-27 -88 0
80 13 0
-80 -13 0
72 3 0
-72 -3 0
84 94 0
-84 -94 0
6 136 0
-6 -136 0
1 95 0
-1 -95 0
75 111 0
-75 -111 0
113 41 0
-113 -41 0
106 102 0
-106 -102 0
19 68 0
-19 -68 0
117 70 0
-117 -70 0
101 70 0
-101 -70 0
100 91 0
-100 -91 0
26 71 0
-26 -71 0
64 73 0
-64 -73 0
115 139 0
-115 -139 0
97 69 0
-97 -69 0
33 65 0
-33 -65 0
28 44 0
-28 -44 0
63 58 0
-63 -58 0
121 115 0
-121 -115 0
98 47 0
-98 -47 0
107 140 0
-107 -140 0
119 81 0
-119 -81 0
106 95 0
-106 -95 0
115 14 0
-115 -14 0
10 139 0
-10 -139 0
100 89 0
-100 -89 0
73 113 0
-73 -113 0
139 96 0
-139 -96 0
79 3 0
-79 -3 0
33 111 0
-33 -111 0
9 54 0
-9 -54 0
93 123 0
-93 -123 0
70 24 0
-70 -24 0
127 80 0
-127 -80 0
128 111 0
-128 -111 0
78 89 0
-78 -89 0
30 91 0
-30 -91 0
56 95 0
-56 -95 0
49 46 0
-49 -46 0
130 132 0
-130 -132 0
1 66 0
-1 -66 0
63 126 0
-63 -126 0
36 95 0
-36 -95 0
49 98 0
-49 -98 0
113 82 0
-113 -82 0
37 33 0
-37 -33 0
101 87 0
-101 -87 0
56 42 0
-56 -42 0
10 135 0
-10 -135 0
137 91 0
-137 -91 0
108 85 0
-108 -85 0
56 46 0
-56 -46 0
52 126 0
-52 -126 0
76 103 0
-76 -103 0
99 24 0
-99 -24 0
59 105 0
-59 -105 0
54 65 0
-54 -65 0
78 58 0
-78 -58 0
124 116 0
-124 -116 0
17 135 0
-17 -135 0
140 132 0
-140 -132 0
53 7 0
-53 -7 0
10 111 0
-10 -111 0
77 58 0
-77 -58 0
81 62 0
-81 -62 0
79 8 0
-79 -8 0
134 14 0
-134 -14 0
106 46 0
-106 -46 0
77 41 0
-77 -41 0
4 74 0
-4 -74 0
52 10 0
-52 -10 0
42 3 0
-42 -3 0
117 27 0
-117 -27 0
73 2 0
-73 -2 0
109 1 0
-109 -1 0
47 58 0
-47 -58 0
9 33 0
-9 -33 0
138 82 0
-138 -82 0
36 74 0
-36 -74 0
140 7 0
-140 -7 0
121 135 0
-121 -135 0
53 41 0
-53 -41 0
71 41 0
-71 -41 0
18 100 0
-18 -100 0
61 14 0
-61 -14 0
122 72 0
-122 -72 0
73 66 0
-73 -66 0
139 111 0
-139 -111 0
127 138 0
-127 -138 0
53 114 0
-53 -114 0
80 75 0
-80 -75 0
64 106 0
-64 -106 0
124 46 0
-124 -46 0
32 58 0
-32 -58 0
29 21 0
-29 -21 0
11 24 0
-11 -24 0
67 129 0
-67 -129 0
32 135 0
-32 -135 0
8 72 0
-8 -72 0
20 14 0
-20 -14 0
72 21 0
-72 -21 0
112 75 0
-112 -75 0
94 2 0
-94 -2 0
13 66 0
-13 -66 0
35 88 0
-35 -88 0
33 71 0
-33 -71 0
10 131 0
-10 -131 0
70 47 0
-70 -47 0
22 91 0
-22 -91 0
109 19 0
-109 -19 0
70 93 0
-70 -93 0
5 87 0
-5 -87 0
46 96 0
-46 -96 0
32 91 0
-32 -91 0
59 130 0
-59 -130 0
37 120 0
-37 -120 0
107 54 0
-107 -54 0
22 108 0
-22 -108 0
71 55 0
-71 -55 0
124 4 0
-124 -4 0
2 3 0
-2 -3 0
80 88 0
-80 -88 0
34 46 0
-34 -46 0
19 82 0
-19 -82 0
60 136 0
-60 -136 0
13 91 0
-13 -91 0
74 32 0
-74 -32 0
97 21 0
-97 -21 0
38 44 0
-38 -44 0
104 129 0
-104 -129 0
55 82 0
-55 -82 0
18 62 0
-18 -62 0
84 135 0
-84 -135 0
59 23 0
-59 -23 0
138 92 0
-138 -92 0
126 16 0
-126 -16 0
45 109 0
-45 -109 0
137 103 0
-137 -103 0
59 57 0
-59 -57 0
20 46 0
-20 -46 0
29 34 0
-29 -34 0
16 4 0
-16 -4 0
101 45 0
-101 -45 0
80 134 0
-80 -134 0
48 85 0
-48 -85 0
71 112 0
-71 -112 0
19 35 0
-19 -35 0
100 92 0
-100 -92 0
110 55 0
-110 -55 0
59 16 0
-59 -16 0
45 57 0
-45 -57 0
25 36 0
-25 -36 0
63 28 0
-63 -28 0
130 71 0
-130 -71 0
128 63 0
-128 -63 0
80 6 0
-80 -6 0
69 121 0
-69 -121 0
9 87 0
-9 -87 0
108 46 0
-108 -46 0
127 46 0
-127 -46 0
105 129 0
-105 -129 0
79 55 0
-79 -55 0
134 98 0
-134 -98 0
6 110 0
-6 -110 0
90 15 0
-90 -15 0
78 84 0
-78 -84 0
18 110 0
-18 -110 0
101 29 0
-101 -29 0
4 110 0
-4 -110 0
127 135 0
-127 -135 0
105 4 0
-105 -4 0
52 79 0
-52 -79 0
31 68 0
-31 -68 0
52 23 0
-52 -23 0
101 27 0
-101 -27 0
45 121 0
-45 -121 0
52 42 0
-52 -42 0
115 17 0
-115 -17 0
23 3 0
-23 -3 0
134 128 0
-134 -128 0
133 78 0
-133 -78 0
101 2 0
-101 -2 0
98 32 0
-98 -32 0
134 77 0
-134 -77 0
57 2 0
-57 -2 0
48 40 0
-48 -40 0
121 46 0
-121 -46 0
83 67 0
-83 -67 0
16 67 0
-16 -67 0
64 80 0
-64 -80 0
34 114 0
-34 -114 0
8 71 0
-8 -71 0
43 55 0
-43 -55 0
19 62 0
-19 -62 0
76 114 0
-76 -114 0
63 50 0
-63 -50 0
131 102 0
-131 -102 0
133 126 0
-133 -126 0
38 31 0
-38 -31 0
19 139 0
-19 -139 0
25 138 0
-25 -138 0
134 92 0
-134 -92 0
38 140 0
-38 -140 0
63 1 0
-63 -1 0
122 82 0
-122 -82 0
56 15 0
-56 -15 0
55 66 0
-55 -66 0
117 91 0
-117 -91 0
14 92 0
-14 -92 0
27 28 0
-27 -28 0
74 114 0
-74 -114 0
6 32 0
-6 -32 0
133 104 0
-133 -104 0
130 131 0
-130 -131 0
34 102 0
-34 -102 0
140 62 0
-140 -62 0
128 31 0
-128 -31 0
87 121 0
-87 -121 0
107 74 0
-107 -74 0
87 91 0
-87 -91 0
59 18 0
-59 -18 0
80 25 0
-80 -25 0
28 72 0
-28 -72 0
131 44 0
-131 -44 0
4 106 0
-4 -106 0
93 3 0
-93 -3 0
47 132 0
-47 -132 0
75 116 0
-75 -116 0
80 106 0
-80 -106 0
27 58 0
-27 -58 0
101 89 0
-101 -89 0
21 129 0
-21 -129 0
65 89 0
-65 -89 0
22 96 0
-22 -96 0
59 36 0
-59 -36 0
101 16 0
-101 -16 0
81 2 0
-81 -2 0
6 109 0
-6 -109 0
8 45 0
-8 -45 0
78 31 0
-78 -31 0
118 41 0
-118 -41 0
35 113 0
-35 -113 0
124 128 0
-124 -128 0
78 12 0
-78 -12 0
9 43 0
-9 -43 0
37 125 0
-37 -125 0
72 77 0
-72 -77 0
83 6 0
-83 -6 0
110 106 0
-110 -106 0
30 31 0
-30 -31 0
128 99 0
-128 -99 0
78 44 0
-78 -44 0
26 45 0
-26 -45 0
17 2 0
-17 -2 0
64 24 0
-64 -24 0
52 111 0
-52 -111 0
